543 5
10 10 10 10 10 

0 0 0 0 0 0 5 2 14 26 38 50 
0 0 0 0 0 0 2 3 5 
2 0 0 0 0 1 3 12 8 4 
10 0 0 0 0 6 3 11 10 6 
3 0 0 0 0 4 2 8 7 
5 0 0 0 0 5 1 7 
3 0 0 0 0 6 1 9 
5 0 0 0 0 4 2 10 386 
9 0 0 0 0 5 1 13 
7 0 0 0 0 10 1 13 
4 0 0 0 0 6 1 13 
8 0 0 0 0 3 1 13 
0 0 0 0 0 0 1 62 
0 0 0 0 0 0 5 15 22 23 24 234 
8 0 0 0 1 0 1 16 
7 0 0 0 3 0 3 21 20 17 
6 0 0 0 5 0 1 18 
5 0 0 0 6 0 1 19 
4 0 0 0 6 0 1 25 
4 0 0 0 5 0 1 25 
4 0 0 0 8 0 1 25 
8 0 0 0 4 0 1 25 
9 0 0 0 3 0 1 25 
5 0 0 0 9 0 1 25 
0 0 0 0 0 0 1 62 
0 0 0 0 0 0 2 27 28 
6 0 1 0 0 0 1 29 
4 0 8 0 0 0 1 29 
1 0 7 0 0 0 1 30 
9 0 4 0 0 0 3 33 32 31 
1 0 3 0 0 0 3 36 35 34 
7 0 4 0 0 0 4 36 35 34 48 
10 0 6 0 0 0 3 36 35 34 
4 0 5 0 0 0 1 37 
1 0 7 0 0 0 1 37 
10 0 5 0 0 0 1 37 
0 0 0 0 0 0 1 62 
0 0 0 0 0 0 2 39 43 
8 0 0 0 0 1 3 44 41 40 
5 0 0 0 0 5 2 42 286 
7 0 0 0 0 9 1 42 
5 0 0 0 0 5 3 48 46 45 
4 0 0 0 0 2 3 48 46 45 
3 0 0 0 0 4 2 46 45 
5 0 0 0 0 7 1 47 
9 0 0 0 0 6 1 47 
1 0 0 0 0 5 1 49 
2 0 0 0 0 6 1 49 
0 0 0 0 0 0 1 62 
0 0 0 0 0 0 1 51 
9 1 0 0 0 0 4 55 54 52 540 
8 8 0 0 0 0 3 60 58 53 
10 6 0 0 0 0 2 59 56 
10 6 0 0 0 0 2 58 56 
5 6 0 0 0 0 2 58 56 
2 2 0 0 0 0 1 57 
1 10 0 0 0 0 1 61 
1 3 0 0 0 0 1 61 
3 2 0 0 0 0 1 61 
9 6 0 0 0 0 1 61 
0 0 0 0 0 0 1 62 
0 0 0 0 0 0 5 63 105 147 159 201 
0 0 0 0 0 0 2 64 67 
9 1 1 1 1 0 1 65 
10 8 10 5 3 0 2 68 66 
6 5 9 5 7 0 4 83 75 73 69 
4 5 4 6 5 0 3 83 73 70 
5 3 7 2 6 0 5 91 89 83 74 72 
2 4 4 5 7 0 1 70 
7 4 7 8 4 0 2 74 71 
8 4 4 8 4 0 2 89 72 
8 5 7 6 6 0 3 93 85 76 
7 5 5 6 4 0 2 93 74 
4 5 4 3 5 0 3 85 80 77 
1 4 4 3 4 0 4 93 85 80 78 
9 3 7 5 6 0 2 80 77 
1 7 5 3 4 0 2 96 78 
3 4 6 4 1 0 2 79 270 
4 7 5 5 8 0 4 103 102 88 81 
1 5 3 5 5 0 2 88 81 
7 6 4 6 6 0 2 101 82 
1 8 6 3 6 0 2 95 84 
2 5 2 5 3 0 3 95 93 87 
5 5 9 9 7 0 1 86 
6 7 4 9 3 0 1 86 
10 5 6 3 9 0 1 87 
2 5 2 5 3 0 2 99 90 
9 6 4 4 2 0 2 95 92 
1 4 3 3 5 0 2 93 92 
2 7 5 8 3 0 2 100 94 
6 5 3 3 6 0 2 99 95 
4 5 4 5 9 0 2 99 98 
2 4 7 5 3 0 2 100 98 
8 4 6 8 4 0 1 97 
4 4 1 5 2 0 1 97 
8 4 8 6 5 0 1 97 
2 4 3 7 5 0 1 98 
10 8 5 6 7 0 1 104 
2 4 4 3 8 0 1 104 
6 4 5 5 5 0 1 104 
2 7 8 6 8 0 1 104 
3 4 5 2 7 0 1 104 
4 6 4 4 4 0 1 104 
0 0 0 0 0 0 1 543 
0 0 0 0 0 0 2 106 108 
1 1 2 1 1 0 1 107 
6 10 4 7 5 0 2 110 109 
6 3 1 4 5 0 1 109 
3 4 3 3 3 0 4 121 115 113 112 
6 5 4 7 5 0 3 115 113 111 
6 7 7 8 8 0 1 112 
9 2 6 4 5 0 3 119 117 114 
10 2 3 6 3 0 3 125 119 118 
6 8 7 5 6 0 2 125 116 
2 9 8 10 8 0 2 119 118 
3 6 3 7 6 0 1 118 
9 4 4 6 5 0 1 118 
3 1 3 6 8 0 2 127 120 
5 9 5 2 3 0 2 127 120 
3 2 8 4 3 0 3 131 124 122 
9 3 7 8 5 0 3 129 128 125 
7 6 3 6 3 0 1 123 
6 7 1 6 4 0 4 138 133 129 126 
8 5 3 5 7 0 2 133 126 
7 2 7 6 3 0 3 138 132 131 
9 7 7 5 8 0 1 128 
9 3 6 4 4 0 3 138 136 130 
1 7 6 6 3 0 2 134 130 
6 4 4 5 3 0 3 140 136 135 
8 6 6 3 7 0 2 137 132 
7 7 7 4 5 0 2 135 133 
9 2 3 5 4 0 2 140 135 
9 3 5 5 8 0 1 136 
8 3 4 3 6 0 2 136 509 
10 6 5 3 7 0 2 145 139 
10 9 7 4 6 0 1 137 
6 3 9 5 4 0 3 145 144 141 
7 5 10 6 8 0 3 145 144 142 
10 8 4 9 8 0 2 144 141 
2 3 5 2 3 0 2 145 144 
5 5 6 4 4 0 1 142 
5 7 6 5 5 0 1 143 
10 6 2 4 5 0 1 146 
4 4 5 2 3 0 1 146 
10 6 4 5 3 0 1 146 
0 0 0 0 0 0 1 543 
0 0 0 0 0 0 3 148 149 151 
9 0 0 0 0 1 2 152 150 
5 0 0 0 0 5 2 152 150 
4 0 0 0 0 5 3 154 153 532 
10 0 0 0 0 3 2 154 153 
7 0 0 0 0 4 1 153 
6 0 0 0 0 5 2 156 155 
9 0 0 0 0 6 2 156 155 
1 0 0 0 0 6 1 157 
5 0 0 0 0 8 1 157 
6 0 0 0 0 7 1 158 
0 0 0 0 0 0 5 243 275 307 339 351 
0 0 0 0 0 0 2 160 164 
3 1 2 2 1 0 1 161 
10 7 8 8 4 0 3 163 162 485 
3 5 6 7 6 0 3 170 168 165 
1 5 4 4 4 0 3 181 168 166 
9 1 9 3 6 0 2 168 166 
7 6 6 4 6 0 1 166 
10 4 8 4 3 0 3 173 172 167 
4 3 10 4 1 0 2 182 169 
1 6 3 5 3 0 2 182 172 
9 4 3 10 7 0 1 171 
6 3 5 5 4 0 1 171 
7 4 6 8 6 0 3 183 180 174 
4 3 4 2 8 0 3 183 180 174 
6 7 6 4 4 0 5 185 183 180 177 176 
10 4 4 3 7 0 3 185 177 175 
6 5 4 5 6 0 1 176 
6 9 6 6 5 0 3 199 188 178 
9 6 4 4 3 0 2 188 178 
9 7 5 3 3 0 2 194 179 
8 5 4 6 6 0 4 198 191 190 184 
5 5 3 6 9 0 3 199 198 184 
7 4 3 4 5 0 3 198 189 183 
3 5 8 3 5 0 2 189 183 
4 4 4 8 5 0 3 197 192 188 
7 3 4 3 7 0 1 186 
1 4 5 6 4 0 2 190 189 
1 9 5 8 7 0 1 187 
1 4 4 3 5 0 2 196 189 
1 2 8 4 5 0 2 191 190 
8 5 9 6 4 0 2 197 192 
4 9 3 3 5 0 2 196 193 
10 3 3 9 4 0 2 196 193 
4 9 5 5 4 0 1 193 
2 6 8 3 5 0 1 195 
5 5 5 2 6 0 1 196 
8 5 3 5 7 0 1 200 
2 9 5 5 6 0 1 200 
9 8 4 10 7 0 1 200 
2 2 1 4 4 0 1 200 
4 4 3 6 3 0 1 200 
0 0 0 0 0 0 1 543 
0 0 0 0 0 0 2 202 205 
1 1 1 0 1 2 2 241 203 
4 2 10 0 7 5 2 207 204 
3 4 5 0 4 5 4 230 214 211 206 
8 6 5 0 3 5 2 211 209 
10 7 6 0 3 2 1 208 
6 2 8 0 5 1 4 230 229 212 210 
4 6 4 0 4 7 2 212 209 
6 8 7 0 4 6 2 229 210 
10 3 5 0 5 7 3 232 226 213 
4 4 5 0 4 10 3 232 212 263 
4 3 4 0 3 5 3 226 218 215 
8 2 7 0 2 9 2 218 215 
9 7 6 0 5 9 3 232 226 216 
3 6 6 0 4 8 2 240 216 
4 6 2 0 3 6 2 237 217 
5 9 4 0 6 7 4 239 238 225 219 
10 2 5 0 7 3 4 237 236 225 220 
4 6 5 0 5 4 2 236 220 
9 3 2 0 10 5 2 228 221 
9 6 2 0 6 4 1 222 
3 7 4 0 5 4 2 235 223 
4 5 6 0 9 5 1 224 
10 6 4 0 6 5 2 234 227 
9 6 6 0 5 3 1 228 
6 7 5 0 5 5 1 227 
10 5 6 0 3 5 1 231 
1 6 5 0 8 4 1 231 
6 4 5 0 4 5 1 232 
7 4 9 0 3 5 1 232 
9 4 5 0 7 3 1 233 
3 6 8 0 9 7 1 234 
4 2 4 0 7 4 1 242 
2 5 4 0 6 4 1 242 
3 3 3 0 4 2 1 242 
3 4 8 0 1 6 1 242 
9 5 5 0 7 4 1 242 
5 6 3 0 7 5 1 242 
10 8 6 0 7 1 1 242 
8 7 3 0 5 5 1 242 
6 7 2 0 1 8 1 242 
0 0 0 0 0 0 1 543 
0 0 0 0 0 0 3 244 245 250 
5 1 1 0 2 0 2 255 246 
1 8 8 0 4 0 2 255 246 
6 5 6 0 6 0 2 251 247 
10 3 3 0 4 0 2 253 248 
1 5 8 0 7 0 1 249 
9 2 5 0 6 0 3 259 258 252 
7 3 4 0 5 0 2 255 254 
2 5 3 0 5 0 1 253 
1 2 6 0 2 0 1 254 
5 6 5 0 4 0 1 254 
3 5 4 0 9 0 3 264 262 256 
7 5 5 0 7 0 3 264 258 256 
4 7 5 0 8 0 1 257 
7 2 4 0 2 0 2 266 260 
7 7 6 0 6 0 1 260 
2 6 6 0 10 0 1 260 
1 6 5 0 4 0 1 261 
9 6 8 0 3 0 1 263 
8 5 4 0 3 0 1 263 
8 8 6 0 4 0 3 273 268 265 
4 3 6 0 1 0 6 273 272 271 269 267 452 
1 7 4 0 3 0 4 272 271 269 267 
3 3 6 0 4 0 2 269 267 
10 7 5 0 5 0 1 270 
10 8 5 0 7 0 1 269 
2 8 7 0 7 0 1 274 
6 8 5 0 5 0 1 274 
5 1 3 0 6 0 1 274 
7 4 4 0 2 0 1 274 
10 4 3 0 9 0 1 274 
0 0 0 0 0 0 1 543 
0 0 0 0 0 0 3 276 277 280 
1 1 0 0 1 1 2 284 278 
9 3 0 0 5 2 2 284 278 
6 3 0 0 10 7 2 283 279 
7 5 0 0 6 6 2 285 281 
1 6 0 0 5 3 2 284 283 
10 7 0 0 10 3 1 282 
10 6 0 0 9 3 3 291 288 286 
1 6 0 0 6 3 1 285 
4 5 0 0 7 7 1 285 
1 5 0 0 4 6 2 291 286 
5 3 0 0 5 4 1 287 
6 5 0 0 7 8 2 292 289 
9 8 0 0 3 4 2 292 289 
5 9 0 0 3 6 2 293 290 
4 5 0 0 2 8 3 298 294 510 
5 5 0 0 4 3 1 292 
2 5 0 0 4 5 1 294 
1 2 0 0 2 5 1 294 
6 5 0 0 2 3 1 295 
9 3 0 0 4 3 1 296 
1 2 0 0 6 9 2 300 297 
6 8 0 0 8 4 5 305 304 303 301 299 
6 4 0 0 5 4 3 303 301 299 
6 7 0 0 5 9 1 302 
7 5 0 0 3 6 1 301 
8 5 0 0 7 5 1 306 
8 6 0 0 3 6 1 306 
7 7 0 0 6 7 1 306 
4 4 0 0 3 8 1 306 
7 5 0 0 5 2 1 306 
0 0 0 0 0 0 1 543 
0 0 0 0 0 0 4 308 309 321 456 
7 1 1 0 1 0 2 327 310 
6 3 3 0 8 0 2 327 310 
4 4 5 0 1 0 2 314 311 
10 6 3 0 6 0 2 317 312 
5 3 3 0 3 0 2 328 313 
9 5 7 0 7 0 2 324 315 
5 5 3 0 5 0 2 317 316 
7 5 7 0 5 0 1 316 
7 6 10 0 6 0 3 332 323 318 
7 4 8 0 4 0 3 332 329 319 
9 4 6 0 4 0 2 329 319 
10 7 4 0 3 0 1 320 
4 3 3 0 6 0 1 322 
4 8 4 0 5 0 1 322 
7 10 4 0 3 0 2 336 325 
3 6 2 0 6 0 2 336 325 
7 7 7 0 9 0 4 337 336 331 326 
9 7 4 0 3 0 3 337 331 326 
5 4 7 0 6 0 3 335 334 330 
5 6 5 0 5 0 2 334 330 
7 3 2 0 4 0 2 334 333 
10 4 6 0 5 0 1 330 
9 4 4 0 5 0 1 333 
10 8 6 0 7 0 1 334 
5 4 6 0 8 0 1 336 
3 4 9 0 6 0 1 338 
10 2 5 0 5 0 1 338 
10 5 7 0 5 0 1 338 
2 7 6 0 3 0 1 338 
8 5 3 0 6 0 1 338 
0 0 0 0 0 0 1 543 
0 0 0 0 0 0 4 340 342 343 496 
9 0 0 0 0 1 1 341 
10 0 0 0 0 6 3 346 345 344 
9 0 0 0 0 4 2 346 344 
1 0 0 0 0 3 1 344 
1 0 0 0 0 7 2 349 348 
8 0 0 0 0 9 1 347 
8 0 0 0 0 3 1 348 
1 0 0 0 0 4 1 348 
3 0 0 0 0 6 1 350 
8 0 0 0 0 7 1 350 
0 0 0 0 0 0 5 383 405 427 439 461 
0 0 0 0 0 0 4 352 353 362 411 
10 0 1 1 0 1 2 370 354 
8 0 1 5 0 3 2 370 354 
10 0 6 3 0 4 2 358 355 
10 0 9 6 0 5 2 361 356 
8 0 9 5 0 7 2 371 357 
8 0 6 6 0 4 2 368 359 
8 0 9 9 0 3 2 361 360 
9 0 5 4 0 8 1 360 
2 0 2 6 0 5 3 376 367 363 
8 0 2 6 0 5 2 376 363 
1 0 6 6 0 7 4 373 371 367 366 
3 0 2 1 0 5 2 373 364 
3 0 5 4 0 9 1 365 
5 0 9 9 0 6 1 366 
4 0 5 4 0 4 2 381 369 
9 0 4 3 0 6 2 381 369 
7 0 5 5 0 4 2 381 369 
4 0 4 6 0 8 3 380 375 372 
3 0 3 4 0 4 3 380 375 372 
2 0 7 5 0 2 3 379 375 374 
3 0 7 3 0 3 3 379 378 374 
9 0 6 9 0 7 1 374 
7 0 5 4 0 5 1 377 
7 0 5 6 0 5 1 378 
8 0 5 5 0 3 1 381 
6 0 8 6 0 6 1 382 
8 0 1 6 0 8 1 382 
1 0 3 6 0 3 1 382 
8 0 4 2 0 4 1 382 
1 0 6 5 0 6 1 382 
0 0 0 0 0 0 1 543 
0 0 0 0 0 0 3 384 386 387 
10 0 0 0 2 1 3 397 392 385 
4 0 0 0 2 2 2 398 388 
4 0 0 0 7 5 4 397 393 392 390 
10 0 0 0 4 9 4 397 393 392 390 
2 0 0 0 5 6 2 393 389 
8 0 0 0 5 3 1 390 
2 0 0 0 5 5 1 391 
3 0 0 0 8 5 4 401 400 396 394 
1 0 0 0 4 7 3 401 400 396 
10 0 0 0 7 5 2 401 394 
10 0 0 0 5 4 2 395 540 
3 0 0 0 6 7 1 399 
5 0 0 0 5 5 1 399 
8 0 0 0 1 4 1 400 
4 0 0 0 10 7 1 400 
3 0 0 0 4 5 1 402 
9 0 0 0 8 2 1 402 
8 0 0 0 2 5 1 403 
10 0 0 0 5 6 1 404 
2 0 0 0 5 7 1 404 
0 0 0 0 0 0 1 543 
0 0 0 0 0 0 1 406 
10 0 0 1 1 0 2 425 407 
4 0 0 3 3 0 3 424 423 408 
10 0 0 9 5 0 3 422 421 409 
7 0 0 6 3 0 2 420 410 
5 0 0 5 6 0 3 419 418 411 
2 0 0 8 7 0 3 417 416 412 
2 0 0 7 3 0 1 413 
6 0 0 7 4 0 1 414 
8 0 0 3 5 0 1 415 
6 0 0 3 9 0 1 426 
6 0 0 10 3 0 1 426 
6 0 0 4 6 0 2 426 445 
6 0 0 3 5 0 1 426 
1 0 0 3 8 0 1 426 
8 0 0 5 4 0 1 426 
2 0 0 8 7 0 1 426 
6 0 0 2 3 0 1 426 
10 0 0 5 5 0 1 426 
10 0 0 4 7 0 1 426 
9 0 0 4 6 0 1 426 
0 0 0 0 0 0 1 543 
0 0 0 0 0 0 4 428 431 433 437 
6 0 0 1 0 0 1 429 
4 0 0 4 0 0 1 430 
2 0 0 5 0 0 3 436 435 432 
9 0 0 8 0 0 3 436 435 432 
2 0 0 6 0 0 1 434 
5 0 0 5 0 0 2 434 479 
8 0 0 3 0 0 1 438 
8 0 0 7 0 0 1 438 
7 0 0 5 0 0 1 438 
8 0 0 6 0 0 1 438 
0 0 0 0 0 0 5 483 495 507 519 531 
0 0 0 0 0 0 4 440 457 458 459 
7 0 1 0 1 0 2 456 441 
8 0 4 0 2 0 2 455 442 
4 0 9 0 5 0 2 454 443 
1 0 5 0 7 0 2 453 444 
9 0 7 0 4 0 2 452 445 
8 0 6 0 5 0 2 451 446 
10 0 3 0 6 0 2 450 447 
9 0 7 0 2 0 1 448 
5 0 7 0 7 0 1 449 
6 0 4 0 3 0 1 460 
2 0 4 0 3 0 1 460 
9 0 2 0 5 0 1 460 
1 0 3 0 2 0 1 460 
6 0 3 0 9 0 1 460 
6 0 9 0 6 0 1 460 
7 0 4 0 7 0 1 460 
4 0 10 0 6 0 1 460 
1 0 2 0 8 0 1 460 
3 0 4 0 4 0 1 460 
6 0 6 0 8 0 1 460 
0 0 0 0 0 0 1 543 
0 0 0 0 0 0 2 462 463 
3 0 1 0 0 2 2 468 464 
9 0 8 0 0 7 3 476 467 466 
7 0 8 0 0 5 1 465 
5 0 5 0 0 7 3 476 471 467 
1 0 6 0 0 4 3 471 469 468 
5 0 5 0 0 2 1 469 
7 0 3 0 0 5 3 479 473 472 
10 0 7 0 0 3 1 470 
3 0 3 0 0 4 3 479 478 472 
4 0 6 0 0 7 3 479 478 472 
5 0 3 0 0 4 2 475 474 
4 0 4 0 0 9 2 478 477 
1 0 5 0 0 6 1 477 
7 0 3 0 0 10 1 477 
4 0 5 0 0 5 1 478 
2 0 5 0 0 3 1 480 
10 0 10 0 0 2 1 480 
4 0 5 0 0 7 1 481 
2 0 3 0 0 5 1 482 
10 0 5 0 0 3 1 482 
0 0 0 0 0 0 1 543 
0 0 0 0 0 0 3 484 487 488 
10 2 0 0 0 0 2 492 485 
6 3 0 0 0 0 2 493 486 
5 6 0 0 0 0 2 491 489 
8 5 0 0 0 0 2 492 491 
9 4 0 0 0 0 2 492 490 
4 4 0 0 0 0 1 490 
9 10 0 0 0 0 1 494 
10 5 0 0 0 0 1 494 
7 4 0 0 0 0 1 494 
9 7 0 0 0 0 1 494 
0 0 0 0 0 0 1 543 
0 0 0 0 0 0 2 496 498 
6 0 0 0 0 1 2 500 497 
10 0 0 0 0 10 2 502 499 
1 0 0 0 0 9 1 499 
5 0 0 0 0 4 2 503 501 
9 0 0 0 0 3 1 501 
4 0 0 0 0 3 2 505 504 
10 0 0 0 0 3 2 505 504 
2 0 0 0 0 4 1 504 
2 0 0 0 0 6 1 506 
4 0 0 0 0 7 1 506 
0 0 0 0 0 0 1 543 
0 0 0 0 0 0 1 508 
3 0 0 0 1 0 2 510 509 
5 0 0 0 5 0 2 512 511 
3 0 0 0 5 0 2 512 511 
6 0 0 0 5 0 3 517 515 513 
9 0 0 0 5 0 3 517 514 513 
8 0 0 0 8 0 1 516 
3 0 0 0 4 0 1 516 
5 0 0 0 5 0 1 516 
8 0 0 0 6 0 1 518 
5 0 0 0 6 0 1 518 
0 0 0 0 0 0 1 543 
0 0 0 0 0 0 3 520 521 523 
6 1 0 0 0 0 2 524 522 
6 7 0 0 0 0 2 524 522 
6 3 0 0 0 0 2 526 525 
4 10 0 0 0 0 2 527 525 
1 4 0 0 0 0 1 526 
5 4 0 0 0 0 1 528 
3 7 0 0 0 0 1 527 
10 4 0 0 0 0 1 529 
6 6 0 0 0 0 1 529 
4 4 0 0 0 0 1 530 
0 0 0 0 0 0 1 543 
0 0 0 0 0 0 4 532 534 536 541 
3 1 0 0 0 0 2 540 533 
4 4 0 0 0 0 1 535 
7 5 0 0 0 0 3 540 539 538 
5 3 0 0 0 0 2 539 537 
3 7 0 0 0 0 1 537 
2 4 0 0 0 0 1 538 
10 7 0 0 0 0 1 542 
1 4 0 0 0 0 1 542 
7 8 0 0 0 0 1 542 
2 7 0 0 0 0 1 542 
0 0 0 0 0 0 1 543 
0 0 0 0 0 0 0 
